p cnf 200 1110
-101 -11 0
-101 -9 0
-101 25 0
-101 -12 0
-101 47 0
-101 72 0
-101 91 0
-101 2 0
-101 66 0
-101 -17 0
101 11 9 -25 12 -47 -72 -91 -2 -66 17 0
-102 -79 0
-102 -13 0
-102 -65 0
-102 23 0
-102 51 0
-102 59 0
-102 -7 0
-102 68 0
-102 47 0
-102 30 0
102 79 13 65 -23 -51 -59 7 -68 -47 -30 0
-103 -64 0
-103 -2 0
-103 -66 0
-103 -79 0
-103 -34 0
-103 28 0
-103 -59 0
-103 44 0
-103 14 0
-103 -17 0
103 64 2 66 79 34 -28 59 -44 -14 17 0
-104 61 0
-104 -2 0
-104 7 0
-104 24 0
-104 34 0
-104 23 0
-104 -39 0
-104 -26 0
-104 -79 0
-104 96 0
104 -61 2 -7 -24 -34 -23 39 26 79 -96 0
-105 76 0
-105 27 0
-105 10 0
-105 15 0
-105 100 0
-105 77 0
-105 30 0
-105 58 0
-105 12 0
-105 -83 0
105 -76 -27 -10 -15 -100 -77 -30 -58 -12 83 0
-106 91 0
-106 86 0
-106 20 0
-106 62 0
-106 -7 0
-106 69 0
-106 1 0
-106 78 0
-106 60 0
-106 -59 0
106 -91 -86 -20 -62 7 -69 -1 -78 -60 59 0
-107 -41 0
-107 -66 0
-107 -20 0
-107 4 0
-107 54 0
-107 -15 0
-107 -68 0
-107 88 0
-107 -75 0
-107 61 0
107 41 66 20 -4 -54 15 68 -88 75 -61 0
-108 68 0
-108 57 0
-108 32 0
-108 73 0
-108 -62 0
-108 -88 0
-108 38 0
-108 -51 0
-108 -71 0
-108 -47 0
108 -68 -57 -32 -73 62 88 -38 51 71 47 0
-109 93 0
-109 -90 0
-109 15 0
-109 -24 0
-109 51 0
-109 98 0
-109 64 0
-109 -40 0
-109 7 0
-109 77 0
109 -93 90 -15 24 -51 -98 -64 40 -7 -77 0
-110 71 0
-110 -5 0
-110 83 0
-110 -2 0
-110 49 0
-110 52 0
-110 24 0
-110 -70 0
-110 -43 0
-110 -51 0
110 -71 5 -83 2 -49 -52 -24 70 43 51 0
101 102 103 104 105 106 107 108 109 110 0
-111 -11 0
-111 -29 0
-111 44 0
-111 -98 0
-111 36 0
-111 3 0
-111 72 0
-111 88 0
-111 -23 0
-111 -49 0
111 11 29 -44 98 -36 -3 -72 -88 23 49 0
-112 56 0
-112 7 0
-112 15 0
-112 -32 0
-112 -77 0
-112 -39 0
-112 -48 0
-112 -91 0
-112 54 0
-112 23 0
112 -56 -7 -15 32 77 39 48 91 -54 -23 0
-113 39 0
-113 -4 0
-113 2 0
-113 64 0
-113 19 0
-113 22 0
-113 -15 0
-113 -40 0
-113 -45 0
-113 -8 0
113 -39 4 -2 -64 -19 -22 15 40 45 8 0
-114 77 0
-114 -84 0
-114 56 0
-114 -21 0
-114 63 0
-114 13 0
-114 -9 0
-114 -65 0
-114 92 0
-114 -66 0
114 -77 84 -56 21 -63 -13 9 65 -92 66 0
-115 16 0
-115 54 0
-115 86 0
-115 95 0
-115 -68 0
-115 39 0
-115 -47 0
-115 99 0
-115 35 0
-115 -2 0
115 -16 -54 -86 -95 68 -39 47 -99 -35 2 0
-116 47 0
-116 59 0
-116 -35 0
-116 -20 0
-116 66 0
-116 -77 0
-116 -18 0
-116 -7 0
-116 88 0
-116 73 0
116 -47 -59 35 20 -66 77 18 7 -88 -73 0
-117 10 0
-117 -58 0
-117 -15 0
-117 83 0
-117 -81 0
-117 16 0
-117 -50 0
-117 86 0
-117 -21 0
-117 27 0
117 -10 58 15 -83 81 -16 50 -86 21 -27 0
-118 5 0
-118 82 0
-118 8 0
-118 -58 0
-118 -94 0
-118 18 0
-118 -57 0
-118 -19 0
-118 85 0
-118 -66 0
118 -5 -82 -8 58 94 -18 57 19 -85 66 0
-119 -93 0
-119 -54 0
-119 -97 0
-119 49 0
-119 -39 0
-119 19 0
-119 76 0
-119 4 0
-119 44 0
-119 -12 0
119 93 54 97 -49 39 -19 -76 -4 -44 12 0
-120 -34 0
-120 49 0
-120 51 0
-120 100 0
-120 -82 0
-120 88 0
-120 -97 0
-120 -64 0
-120 58 0
-120 -37 0
120 34 -49 -51 -100 82 -88 97 64 -58 37 0
111 112 113 114 115 116 117 118 119 120 0
-121 55 0
-121 -84 0
-121 52 0
-121 -47 0
-121 79 0
-121 -45 0
-121 78 0
-121 43 0
-121 14 0
-121 -89 0
121 -55 84 -52 47 -79 45 -78 -43 -14 89 0
-122 90 0
-122 -60 0
-122 77 0
-122 -72 0
-122 -87 0
-122 85 0
-122 79 0
-122 71 0
-122 35 0
-122 -14 0
122 -90 60 -77 72 87 -85 -79 -71 -35 14 0
-123 1 0
-123 32 0
-123 6 0
-123 -69 0
-123 19 0
-123 -45 0
-123 83 0
-123 -40 0
-123 -88 0
-123 68 0
123 -1 -32 -6 69 -19 45 -83 40 88 -68 0
-124 -25 0
-124 -73 0
-124 -61 0
-124 -77 0
-124 -43 0
-124 -92 0
-124 -13 0
-124 -97 0
-124 -40 0
-124 -87 0
124 25 73 61 77 43 92 13 97 40 87 0
-125 -42 0
-125 9 0
-125 59 0
-125 -61 0
-125 90 0
-125 -33 0
-125 12 0
-125 -86 0
-125 19 0
-125 69 0
125 42 -9 -59 61 -90 33 -12 86 -19 -69 0
-126 -20 0
-126 92 0
-126 95 0
-126 26 0
-126 -44 0
-126 -1 0
-126 52 0
-126 -89 0
-126 91 0
-126 -98 0
126 20 -92 -95 -26 44 1 -52 89 -91 98 0
-127 56 0
-127 -86 0
-127 -43 0
-127 -1 0
-127 73 0
-127 -42 0
-127 79 0
-127 27 0
-127 -31 0
-127 22 0
127 -56 86 43 1 -73 42 -79 -27 31 -22 0
-128 -27 0
-128 38 0
-128 24 0
-128 -81 0
-128 69 0
-128 91 0
-128 -54 0
-128 37 0
-128 -66 0
-128 -45 0
128 27 -38 -24 81 -69 -91 54 -37 66 45 0
-129 -41 0
-129 46 0
-129 -51 0
-129 -80 0
-129 72 0
-129 84 0
-129 92 0
-129 47 0
-129 100 0
-129 -1 0
129 41 -46 51 80 -72 -84 -92 -47 -100 1 0
-130 -40 0
-130 -17 0
-130 96 0
-130 77 0
-130 -62 0
-130 -67 0
-130 -5 0
-130 -83 0
-130 8 0
-130 -92 0
130 40 17 -96 -77 62 67 5 83 -8 92 0
121 122 123 124 125 126 127 128 129 130 0
-131 83 0
-131 -11 0
-131 -53 0
-131 -98 0
-131 -67 0
-131 91 0
-131 -15 0
-131 95 0
-131 51 0
-131 41 0
131 -83 11 53 98 67 -91 15 -95 -51 -41 0
-132 19 0
-132 -48 0
-132 33 0
-132 -62 0
-132 -67 0
-132 -52 0
-132 98 0
-132 -15 0
-132 -45 0
-132 64 0
132 -19 48 -33 62 67 52 -98 15 45 -64 0
-133 90 0
-133 84 0
-133 75 0
-133 87 0
-133 -10 0
-133 -77 0
-133 -6 0
-133 7 0
-133 20 0
-133 92 0
133 -90 -84 -75 -87 10 77 6 -7 -20 -92 0
-134 13 0
-134 -14 0
-134 -7 0
-134 85 0
-134 -3 0
-134 10 0
-134 95 0
-134 100 0
-134 -77 0
-134 -50 0
134 -13 14 7 -85 3 -10 -95 -100 77 50 0
-135 -32 0
-135 -57 0
-135 76 0
-135 -27 0
-135 -72 0
-135 87 0
-135 -68 0
-135 -20 0
-135 35 0
-135 -36 0
135 32 57 -76 27 72 -87 68 20 -35 36 0
-136 -3 0
-136 -69 0
-136 6 0
-136 83 0
-136 49 0
-136 25 0
-136 -73 0
-136 -90 0
-136 -81 0
-136 -48 0
136 3 69 -6 -83 -49 -25 73 90 81 48 0
-137 -79 0
-137 -63 0
-137 95 0
-137 25 0
-137 -65 0
-137 -66 0
-137 19 0
-137 -24 0
-137 -87 0
-137 -29 0
137 79 63 -95 -25 65 66 -19 24 87 29 0
-138 -60 0
-138 92 0
-138 -41 0
-138 54 0
-138 86 0
-138 89 0
-138 6 0
-138 -76 0
-138 -66 0
-138 70 0
138 60 -92 41 -54 -86 -89 -6 76 66 -70 0
-139 -48 0
-139 18 0
-139 -41 0
-139 4 0
-139 85 0
-139 -6 0
-139 -5 0
-139 -50 0
-139 83 0
-139 63 0
139 48 -18 41 -4 -85 6 5 50 -83 -63 0
-140 -42 0
-140 91 0
-140 -77 0
-140 -95 0
-140 37 0
-140 -62 0
-140 -31 0
-140 53 0
-140 1 0
-140 76 0
140 42 -91 77 95 -37 62 31 -53 -1 -76 0
131 132 133 134 135 136 137 138 139 140 0
-141 47 0
-141 96 0
-141 -69 0
-141 25 0
-141 74 0
-141 48 0
-141 99 0
-141 71 0
-141 -6 0
-141 -93 0
141 -47 -96 69 -25 -74 -48 -99 -71 6 93 0
-142 80 0
-142 -38 0
-142 100 0
-142 -51 0
-142 54 0
-142 66 0
-142 -50 0
-142 -59 0
-142 -85 0
-142 63 0
142 -80 38 -100 51 -54 -66 50 59 85 -63 0
-143 -61 0
-143 -50 0
-143 -14 0
-143 -84 0
-143 58 0
-143 -85 0
-143 26 0
-143 -65 0
-143 -64 0
-143 10 0
143 61 50 14 84 -58 85 -26 65 64 -10 0
-144 -8 0
-144 89 0
-144 7 0
-144 65 0
-144 -34 0
-144 -88 0
-144 -83 0
-144 24 0
-144 -12 0
-144 14 0
144 8 -89 -7 -65 34 88 83 -24 12 -14 0
-145 -1 0
-145 69 0
-145 97 0
-145 13 0
-145 -48 0
-145 -12 0
-145 -19 0
-145 43 0
-145 45 0
-145 42 0
145 1 -69 -97 -13 48 12 19 -43 -45 -42 0
-146 98 0
-146 61 0
-146 32 0
-146 -6 0
-146 -77 0
-146 12 0
-146 96 0
-146 -43 0
-146 64 0
-146 71 0
146 -98 -61 -32 6 77 -12 -96 43 -64 -71 0
-147 94 0
-147 -12 0
-147 -39 0
-147 -63 0
-147 -93 0
-147 30 0
-147 -85 0
-147 -69 0
-147 67 0
-147 25 0
147 -94 12 39 63 93 -30 85 69 -67 -25 0
-148 -14 0
-148 95 0
-148 54 0
-148 10 0
-148 -62 0
-148 -83 0
-148 92 0
-148 18 0
-148 37 0
-148 -29 0
148 14 -95 -54 -10 62 83 -92 -18 -37 29 0
-149 -63 0
-149 57 0
-149 1 0
-149 -69 0
-149 77 0
-149 11 0
-149 90 0
-149 -50 0
-149 97 0
-149 46 0
149 63 -57 -1 69 -77 -11 -90 50 -97 -46 0
-150 58 0
-150 48 0
-150 -15 0
-150 89 0
-150 -44 0
-150 -79 0
-150 -43 0
-150 55 0
-150 64 0
-150 60 0
150 -58 -48 15 -89 44 79 43 -55 -64 -60 0
141 142 143 144 145 146 147 148 149 150 0
-151 87 0
-151 64 0
-151 -61 0
-151 32 0
-151 10 0
-151 -96 0
-151 23 0
-151 -98 0
-151 60 0
-151 37 0
151 -87 -64 61 -32 -10 96 -23 98 -60 -37 0
-152 41 0
-152 -75 0
-152 -18 0
-152 -72 0
-152 65 0
-152 -47 0
-152 49 0
-152 -93 0
-152 -39 0
-152 6 0
152 -41 75 18 72 -65 47 -49 93 39 -6 0
-153 -60 0
-153 24 0
-153 33 0
-153 76 0
-153 -78 0
-153 88 0
-153 71 0
-153 -99 0
-153 42 0
-153 -63 0
153 60 -24 -33 -76 78 -88 -71 99 -42 63 0
-154 3 0
-154 -80 0
-154 10 0
-154 47 0
-154 17 0
-154 -26 0
-154 -98 0
-154 -23 0
-154 52 0
-154 -96 0
154 -3 80 -10 -47 -17 26 98 23 -52 96 0
-155 -99 0
-155 -34 0
-155 -63 0
-155 43 0
-155 -77 0
-155 -42 0
-155 -56 0
-155 -37 0
-155 78 0
-155 -1 0
155 99 34 63 -43 77 42 56 37 -78 1 0
-156 -44 0
-156 -91 0
-156 62 0
-156 64 0
-156 24 0
-156 71 0
-156 -73 0
-156 -14 0
-156 -77 0
-156 -54 0
156 44 91 -62 -64 -24 -71 73 14 77 54 0
-157 -62 0
-157 85 0
-157 -12 0
-157 63 0
-157 47 0
-157 37 0
-157 83 0
-157 -13 0
-157 22 0
-157 -46 0
157 62 -85 12 -63 -47 -37 -83 13 -22 46 0
-158 -82 0
-158 -73 0
-158 89 0
-158 14 0
-158 41 0
-158 -96 0
-158 -22 0
-158 56 0
-158 16 0
-158 93 0
158 82 73 -89 -14 -41 96 22 -56 -16 -93 0
-159 -3 0
-159 10 0
-159 -74 0
-159 -77 0
-159 -27 0
-159 -83 0
-159 -100 0
-159 -53 0
-159 95 0
-159 89 0
159 3 -10 74 77 27 83 100 53 -95 -89 0
-160 -24 0
-160 -7 0
-160 81 0
-160 -79 0
-160 -39 0
-160 -40 0
-160 76 0
-160 -8 0
-160 -65 0
-160 -74 0
160 24 7 -81 79 39 40 -76 8 65 74 0
151 152 153 154 155 156 157 158 159 160 0
-161 82 0
-161 -48 0
-161 -68 0
-161 88 0
-161 -26 0
-161 -49 0
-161 -27 0
-161 17 0
-161 -54 0
-161 -98 0
161 -82 48 68 -88 26 49 27 -17 54 98 0
-162 -94 0
-162 46 0
-162 -82 0
-162 -98 0
-162 70 0
-162 41 0
-162 96 0
-162 79 0
-162 1 0
-162 54 0
162 94 -46 82 98 -70 -41 -96 -79 -1 -54 0
-163 83 0
-163 45 0
-163 2 0
-163 -52 0
-163 66 0
-163 -33 0
-163 24 0
-163 -20 0
-163 39 0
-163 -43 0
163 -83 -45 -2 52 -66 33 -24 20 -39 43 0
-164 91 0
-164 88 0
-164 -45 0
-164 83 0
-164 -97 0
-164 -76 0
-164 -11 0
-164 -63 0
-164 -42 0
-164 64 0
164 -91 -88 45 -83 97 76 11 63 42 -64 0
-165 32 0
-165 70 0
-165 60 0
-165 72 0
-165 -17 0
-165 -38 0
-165 83 0
-165 -26 0
-165 -4 0
-165 -3 0
165 -32 -70 -60 -72 17 38 -83 26 4 3 0
-166 -53 0
-166 -72 0
-166 -24 0
-166 21 0
-166 -90 0
-166 -42 0
-166 26 0
-166 -29 0
-166 8 0
-166 59 0
166 53 72 24 -21 90 42 -26 29 -8 -59 0
-167 33 0
-167 -76 0
-167 80 0
-167 5 0
-167 62 0
-167 42 0
-167 99 0
-167 -71 0
-167 89 0
-167 88 0
167 -33 76 -80 -5 -62 -42 -99 71 -89 -88 0
-168 50 0
-168 -94 0
-168 33 0
-168 -54 0
-168 -90 0
-168 17 0
-168 67 0
-168 34 0
-168 4 0
-168 -31 0
168 -50 94 -33 54 90 -17 -67 -34 -4 31 0
-169 -7 0
-169 -26 0
-169 49 0
-169 -100 0
-169 -45 0
-169 89 0
-169 -70 0
-169 -95 0
-169 -1 0
-169 -46 0
169 7 26 -49 100 45 -89 70 95 1 46 0
-170 61 0
-170 -73 0
-170 90 0
-170 62 0
-170 82 0
-170 -40 0
-170 71 0
-170 -14 0
-170 83 0
-170 -97 0
170 -61 73 -90 -62 -82 40 -71 14 -83 97 0
161 162 163 164 165 166 167 168 169 170 0
-171 17 0
-171 60 0
-171 -62 0
-171 -81 0
-171 52 0
-171 69 0
-171 -21 0
-171 25 0
-171 65 0
-171 72 0
171 -17 -60 62 81 -52 -69 21 -25 -65 -72 0
-172 -74 0
-172 30 0
-172 70 0
-172 -73 0
-172 -92 0
-172 60 0
-172 -25 0
-172 -39 0
-172 95 0
-172 -3 0
172 74 -30 -70 73 92 -60 25 39 -95 3 0
-173 -96 0
-173 -4 0
-173 -24 0
-173 27 0
-173 -5 0
-173 53 0
-173 13 0
-173 26 0
-173 -15 0
-173 -93 0
173 96 4 24 -27 5 -53 -13 -26 15 93 0
-174 -51 0
-174 72 0
-174 -46 0
-174 18 0
-174 85 0
-174 74 0
-174 35 0
-174 -80 0
-174 67 0
-174 6 0
174 51 -72 46 -18 -85 -74 -35 80 -67 -6 0
-175 65 0
-175 -19 0
-175 4 0
-175 -23 0
-175 -77 0
-175 -12 0
-175 83 0
-175 -51 0
-175 -66 0
-175 92 0
175 -65 19 -4 23 77 12 -83 51 66 -92 0
-176 -50 0
-176 -99 0
-176 73 0
-176 83 0
-176 9 0
-176 -77 0
-176 -93 0
-176 42 0
-176 68 0
-176 74 0
176 50 99 -73 -83 -9 77 93 -42 -68 -74 0
-177 55 0
-177 37 0
-177 -56 0
-177 -76 0
-177 79 0
-177 -81 0
-177 74 0
-177 -45 0
-177 13 0
-177 38 0
177 -55 -37 56 76 -79 81 -74 45 -13 -38 0
-178 -15 0
-178 49 0
-178 -97 0
-178 -70 0
-178 -8 0
-178 35 0
-178 -59 0
-178 67 0
-178 55 0
-178 -100 0
178 15 -49 97 70 8 -35 59 -67 -55 100 0
-179 94 0
-179 21 0
-179 -39 0
-179 73 0
-179 76 0
-179 -69 0
-179 -100 0
-179 85 0
-179 -28 0
-179 99 0
179 -94 -21 39 -73 -76 69 100 -85 28 -99 0
-180 -88 0
-180 -89 0
-180 95 0
-180 -12 0
-180 -55 0
-180 58 0
-180 -79 0
-180 -32 0
-180 47 0
-180 78 0
180 88 89 -95 12 55 -58 79 32 -47 -78 0
171 172 173 174 175 176 177 178 179 180 0
-181 -22 0
-181 34 0
-181 -47 0
-181 54 0
-181 68 0
-181 -93 0
-181 57 0
-181 -1 0
-181 -94 0
-181 55 0
181 22 -34 47 -54 -68 93 -57 1 94 -55 0
-182 -2 0
-182 41 0
-182 18 0
-182 69 0
-182 22 0
-182 42 0
-182 -6 0
-182 35 0
-182 -95 0
-182 -86 0
182 2 -41 -18 -69 -22 -42 6 -35 95 86 0
-183 -56 0
-183 24 0
-183 -4 0
-183 -71 0
-183 -78 0
-183 -5 0
-183 93 0
-183 58 0
-183 -31 0
-183 -9 0
183 56 -24 4 71 78 5 -93 -58 31 9 0
-184 -81 0
-184 -86 0
-184 56 0
-184 80 0
-184 21 0
-184 -50 0
-184 -88 0
-184 7 0
-184 83 0
-184 66 0
184 81 86 -56 -80 -21 50 88 -7 -83 -66 0
-185 -12 0
-185 -62 0
-185 65 0
-185 -58 0
-185 3 0
-185 69 0
-185 1 0
-185 5 0
-185 -74 0
-185 45 0
185 12 62 -65 58 -3 -69 -1 -5 74 -45 0
-186 19 0
-186 -87 0
-186 -40 0
-186 -76 0
-186 -15 0
-186 51 0
-186 -6 0
-186 -88 0
-186 -42 0
-186 -65 0
186 -19 87 40 76 15 -51 6 88 42 65 0
-187 -72 0
-187 76 0
-187 -20 0
-187 68 0
-187 46 0
-187 30 0
-187 -45 0
-187 -73 0
-187 -83 0
-187 65 0
187 72 -76 20 -68 -46 -30 45 73 83 -65 0
-188 -67 0
-188 -21 0
-188 -61 0
-188 53 0
-188 -76 0
-188 87 0
-188 63 0
-188 -45 0
-188 -18 0
-188 -19 0
188 67 21 61 -53 76 -87 -63 45 18 19 0
-189 17 0
-189 -19 0
-189 5 0
-189 55 0
-189 38 0
-189 88 0
-189 67 0
-189 53 0
-189 -81 0
-189 -35 0
189 -17 19 -5 -55 -38 -88 -67 -53 81 35 0
-190 -44 0
-190 38 0
-190 91 0
-190 54 0
-190 53 0
-190 17 0
-190 -74 0
-190 32 0
-190 41 0
-190 22 0
190 44 -38 -91 -54 -53 -17 74 -32 -41 -22 0
181 182 183 184 185 186 187 188 189 190 0
-191 13 0
-191 48 0
-191 31 0
-191 47 0
-191 50 0
-191 -84 0
-191 -97 0
-191 5 0
-191 -18 0
-191 -62 0
191 -13 -48 -31 -47 -50 84 97 -5 18 62 0
-192 99 0
-192 -19 0
-192 95 0
-192 -49 0
-192 28 0
-192 1 0
-192 -24 0
-192 80 0
-192 -51 0
-192 -45 0
192 -99 19 -95 49 -28 -1 24 -80 51 45 0
-193 75 0
-193 58 0
-193 99 0
-193 -94 0
-193 14 0
-193 24 0
-193 -40 0
-193 12 0
-193 82 0
-193 23 0
193 -75 -58 -99 94 -14 -24 40 -12 -82 -23 0
-194 -63 0
-194 84 0
-194 -55 0
-194 90 0
-194 64 0
-194 6 0
-194 -9 0
-194 59 0
-194 -11 0
-194 73 0
194 63 -84 55 -90 -64 -6 9 -59 11 -73 0
-195 12 0
-195 2 0
-195 -6 0
-195 -100 0
-195 76 0
-195 -88 0
-195 60 0
-195 49 0
-195 -13 0
-195 57 0
195 -12 -2 6 100 -76 88 -60 -49 13 -57 0
-196 -13 0
-196 36 0
-196 76 0
-196 -46 0
-196 -84 0
-196 23 0
-196 24 0
-196 -71 0
-196 -27 0
-196 33 0
196 13 -36 -76 46 84 -23 -24 71 27 -33 0
-197 57 0
-197 37 0
-197 -93 0
-197 69 0
-197 59 0
-197 -81 0
-197 95 0
-197 -79 0
-197 -28 0
-197 54 0
197 -57 -37 93 -69 -59 81 -95 79 28 -54 0
-198 82 0
-198 8 0
-198 -85 0
-198 -71 0
-198 -38 0
-198 -80 0
-198 -17 0
-198 90 0
-198 -5 0
-198 63 0
198 -82 -8 85 71 38 80 17 -90 5 -63 0
-199 85 0
-199 58 0
-199 16 0
-199 -44 0
-199 -20 0
-199 -37 0
-199 73 0
-199 99 0
-199 32 0
-199 -2 0
199 -85 -58 -16 44 20 37 -73 -99 -32 2 0
-200 -23 0
-200 72 0
-200 79 0
-200 -11 0
-200 81 0
-200 -64 0
-200 -75 0
-200 -52 0
-200 -62 0
-200 -95 0
200 23 -72 -79 11 -81 64 75 52 62 95 0
191 192 193 194 195 196 197 198 199 200 0
